59319
34,90,709,817,858,954,1043,1044,1222,1274,1289,1448,1464,1478,1581,1606,1623,1671,1758,1804,1842,1868,1946,1996,2060,2249,2495,2625,2640,2752,3020,3279,3332,3375,3535,3550,3680,3780,4051,4222,4263,4405,4676,4769,4950,4994,5009,5196,5232,5377,5390,5427,5614,5761,6038,6092,6149,6259,6284,6294,6378,6532,6570,6582,6599,6713,6834,7060,7094,7161,7191,7238,7267,7372,7387,7461,7539,7563,8017,8103,8314,8363,8447,8914,8980,9017,9205,9217,9313,9389,9513,9567,9571,9694,9751,9794,9814,9849
